NAME : gr48.10665.tour
COMMENT : Cost = 1562_10665
COMMENT : Found by LKH [Keld Helsgaun] Thu Nov 16 17:33:42 2017
TYPE : TOUR
DIMENSION : 57
TOUR_SECTION
1
13
49
7
50
15
24
10
12
31
53
47
2
35
42
37
52
16
14
9
32
27
17
21
36
56
40
39
18
46
28
54
34
23
4
19
3
25
41
44
55
43
45
20
38
30
51
48
11
26
8
33
5
22
6
57
29
-1
EOF
